32      4       
14      15      17      18      
0       0       0       0       0       3       2       3       4       
10      1       0       0       14      3       8       6       5       
5       0       12      4       0       2       6       5       
4       10      0       0       9       2       8       5       
8       10      0       17      0       1       7       
7       14      8       0       0       1       7       
4       0       7       8       0       2       10      9       
5       12      0       12      0       2       10      9       
4       0       12      0       11      3       14      13      11      
5       1       0       0       6       3       14      12      11      
4       0       8       0       1       2       16      15      
10      0       0       7       5       2       16      15      
6       8       15      0       0       2       16      15      
3       0       1       0       1       1       15      
7       14      0       8       0       2       20      17      
2       0       15      0       9       2       20      18      
7       0       4       6       0       1       18      
3       1       0       0       13      1       19      
5       1       0       17      0       2       22      21      
6       0       1       0       14      1       21      
3       8       5       0       0       2       24      23      
1       0       0       2       13      1       23      
1       0       8       3       0       2       28      26      
1       1       1       0       0       1       25      
7       11      0       17      0       2       28      27      
6       0       1       0       7       1       27      
2       0       0       12      6       2       30      29      
5       6       15      0       0       2       30      29      
2       0       0       2       18      1       31      
8       7       0       5       0       1       31      
2       0       0       8       8       1       32      
0       0       0       0       0       0       
